1 2 5 3 4 6 7 8 9 10 11 12 13 14 15 16 17 18 19 20 21 22 23 24 25 26 27 28 29 30 31 32 33 34 35 36 37 38 39 40 50 41 42 43 44 45 46 47 48 49 51 53 52 54 55 57 58 59 60 61 62 63 64 65 66 67 56 72 68 69 70 71 73 80 81 83 84 85 109 306 305 991 297 298 286 287 288 289 290 291 292 293 294 295 296 308 307 309 310 311 312 313 314 315 316 319 318 317 320 321 322 323 324 325 326 327 328 329 330 331 332 333 334 335 336 337 338 339 340 341 342 343 344 345 346 347 348 349 350 351 352 353 354 355 356 357 358 359 360 361 362 363 364 365 366 367 368 378 369 370 371 372 373 374 375 376 377 379 381 380 382 383 385 386 387 388 389 390 391 392 393 394 395 384 400 396 397 398 399 401 402 403 405 406 407 410 408 409 411 412 413 414 416 417 415 418 419 420 421 422 423 424 426 427 425 462 461 428 429 430 457 456 455 453 452 434 433 432 431 997 435 436 437 438 439 634 633 992 625 626 628 627 612 613 614 615 616 617 618 619 620 621 622 623 624 636 635 637 638 639 640 641 642 643 644 647 646 645 648 649 650 651 652 653 654 655 656 657 658 659 660 661 662 663 664 665 666 667 668 669 670 671 672 673 674 675 676 677 678 679 680 681 682 683 684 685 686 687 688 689 690 691 692 693 694 695 696 706 707 709 708 710 711 713 714 715 716 717 718 719 720 721 722 723 712 728 724 725 726 727 729 730 731 732 792 791 793 794 795 796 797 798 801 787 788 790 789 756 785 784 786 802 800 799 808 807 809 810 811 812 813 814 818 819 820 821 822 825 824 823 817 816 815 841 840 839 852 858 857 856 855 854 853 850 849 848 847 846 845 844 851 843 842 907 908 909 915 914 913 912 911 910 1001 806 805 804 803 782 783 781 780 779 778 777 776 773 775 774 772 771 770 768 769 767 766 765 764 763 1000 762 761 760 759 758 757 755 754 753 752 751 750 749 748 747 746 733 734 735 736 737 738 744 745 743 742 741 739 740 704 703 702 701 700 699 705 697 698 970 987 986 988 989 990 985 984 983 982 981 980 979 978 977 976 973 974 975 972 971 969 968 967 966 965 964 963 962 961 960 959 958 957 939 955 956 954 993 953 952 951 950 949 948 947 946 945 944 943 942 941 940 938 937 936 935 934 933 932 931 930 929 928 926 927 925 924 923 922 921 920 919 902 918 917 916 904 905 906 903 901 900 899 898 897 896 895 894 893 892 891 890 889 888 886 887 885 884 883 882 881 880 879 878 877 876 875 874 873 868 872 871 870 869 867 866 865 864 863 861 862 860 859 1002 838 837 836 835 834 833 832 831 830 829 828 827 826 552 553 554 555 556 557 595 599 600 601 602 603 604 605 606 607 608 609 610 611 629 630 631 632 441 440 442 443 444 445 446 447 451 450 448 449 585 586 587 598 597 596 594 593 559 592 591 574 590 589 588 576 577 578 575 573 572 571 570 514 569 568 567 566 565 564 563 562 561 560 558 551 550 549 548 547 546 545 540 544 543 542 541 539 538 537 536 535 533 534 532 531 529 528 527 526 525 522 521 520 519 518 517 516 515 523 524 530 999 510 511 512 509 508 507 506 505 504 503 502 501 500 499 498 213 216 215 214 220 221 222 223 224 225 226 227 228 229 231 230 232 233 234 235 236 237 238 239 240 241 242 243 244 245 246 263 264 265 266 267 268 269 271 272 273 274 275 276 467 468 469 470 471 472 473 474 475 476 477 478 479 480 493 494 497 496 495 491 490 489 488 487 513 486 485 484 492 483 482 481 998 579 580 581 582 583 584 454 458 459 460 465 466 463 464 404 285 284 281 277 278 279 280 282 283 299 300 301 302 303 304 111 113 112 110 108 107 994 103 102 101 100 132 131 130 129 128 127 125 126 122 123 124 104 105 106 119 118 114 115 116 117 120 121 257 256 255 254 253 259 258 270 260 261 262 247 248 249 250 252 251 186 185 184 187 188 189 190 192 193 194 195 196 202 197 198 201 200 199 191 218 219 217 212 211 210 209 208 207 205 206 204 203 996 182 183 181 180 179 178 177 176 175 174 173 170 171 172 161 167 168 169 166 165 164 163 162 160 159 158 157 156 155 154 153 995 150 151 152 149 148 147 146 145 144 143 142 141 140 139 138 137 136 135 134 133 97 99 98 96 95 94 93 92 91 90 89 87 86 88 82 79 78 77 76 75 74 
282520